p cnf 17 72
-6 -9 14 0
-4 7 -12 0
3 9 16 0
-2 -11 17 0
-6 7 10 0
5 13 -15 0
4 11 17 0
1 2 15 0
-14 -16 17 0
7 -8 -16 0
-2 6 -9 0
2 -5 12 0
2 -11 -13 0
5 7 -17 0
5 -6 -14 0
-6 -12 -14 0
4 5 13 0
1 -5 -14 0
3 7 -13 0
-1 -2 8 0
-13 14 17 0
6 -7 9 0
-6 -9 -16 0
13 -14 -15 0
3 -10 14 0
-10 -11 -14 0
4 10 13 0
-1 2 -8 0
-3 13 -17 0
8 9 -12 0
8 9 13 0
-9 -11 15 0
-2 -5 11 0
2 -4 -12 0
5 9 -17 0
-2 11 -15 0
12 15 -17 0
-6 -10 -12 0
7 14 -15 0
-5 -9 -14 0
6 -12 14 0
-7 -11 16 0
2 4 15 0
4 13 16 0
5 8 9 0
-6 -8 14 0
-9 10 13 0
9 11 13 0
10 -13 14 0
4 6 -12 0
3 -5 -17 0
10 11 14 0
2 11 -13 0
-2 -5 -9 0
-5 -10 12 0
6 -10 -17 0
3 12 -16 0
-4 9 -12 0
8 11 -14 0
1 -7 -14 0
5 -8 -15 0
-10 11 -14 0
-5 7 8 0
3 -12 16 0
-8 12 -16 0
-4 -8 10 0
3 9 17 0
-2 -5 -11 0
1 -10 15 0
5 7 -16 0
-1 10 14 0
-3 -14 17 0
